p cep 330 3253
1 2
1 3
1 4
1 5
1 6
1 7
1 8
1 9
1 10
1 17
1 18
1 19
1 20
1 21
1 22
1 23
1 24
1 25
1 26
1 27
1 28
1 29
1 30
1 31
1 32
1 33
1 34
1 35
1 36
1 37
1 38
1 39
1 40
1 41
1 42
1 43
1 70
1 71
1 74
1 75
1 76
1 77
2 3
2 4
2 5
2 6
2 7
2 8
2 9
2 10
2 17
2 18
2 19
2 20
2 21
2 22
2 23
2 24
2 25
2 26
2 27
2 28
2 29
2 30
2 31
2 32
2 33
2 34
2 35
2 36
2 37
2 38
2 39
2 40
2 41
2 42
2 43
2 66
2 67
2 68
2 69
2 70
2 71
2 74
2 75
2 76
2 77
2 84
3 4
3 5
3 6
3 7
3 8
3 9
3 10
3 17
3 18
3 19
3 20
3 21
3 22
3 23
3 24
3 25
3 26
3 27
3 28
3 29
3 30
3 31
3 32
3 33
3 34
3 35
3 36
3 37
3 38
3 39
3 40
3 41
3 42
3 43
3 44
3 71
3 74
3 75
3 76
3 77
3 78
3 79
3 80
3 81
3 82
3 83
3 84
4 5
4 6
4 7
4 8
4 9
4 10
4 17
4 18
4 19
4 20
4 21
4 22
4 23
4 24
4 25
4 26
4 27
4 28
4 29
4 30
4 31
4 32
4 33
4 34
4 35
4 36
4 37
4 38
4 39
4 40
4 41
4 42
4 43
4 44
4 45
4 74
4 75
4 76
4 77
4 79
4 80
4 81
4 82
4 83
4 84
5 6
5 7
5 8
5 9
5 10
5 17
5 18
5 19
5 20
5 21
5 22
5 23
5 24
5 25
5 26
5 27
5 28
5 29
5 30
5 31
5 32
5 33
5 34
5 35
5 36
5 37
5 38
5 39
5 40
5 41
5 42
5 43
5 44
5 45
5 74
5 75
5 76
5 77
5 80
5 81
5 82
5 83
5 84
6 7
6 8
6 9
6 10
6 17
6 18
6 19
6 20
6 21
6 22
6 23
6 24
6 25
6 26
6 27
6 28
6 29
6 30
6 31
6 32
6 33
6 34
6 35
6 36
6 37
6 38
6 39
6 40
6 41
6 42
6 43
6 44
6 45
6 74
6 75
6 76
6 77
6 81
6 82
6 83
6 84
7 8
7 9
7 10
7 17
7 18
7 19
7 20
7 21
7 22
7 23
7 24
7 25
7 26
7 27
7 28
7 29
7 30
7 31
7 32
7 33
7 34
7 35
7 36
7 37
7 38
7 39
7 40
7 41
7 42
7 43
7 44
7 45
7 46
7 77
7 81
7 82
7 83
7 84
8 9
8 10
8 11
8 17
8 18
8 19
8 20
8 21
8 22
8 23
8 24
8 25
8 26
8 27
8 28
8 29
8 30
8 31
8 32
8 33
8 34
8 35
8 36
8 37
8 38
8 39
8 40
8 41
8 42
8 43
8 44
8 45
8 46
8 83
8 84
9 10
9 11
9 17
9 18
9 19
9 20
9 21
9 22
9 23
9 24
9 25
9 26
9 27
9 28
9 29
9 30
9 31
9 32
9 33
9 34
9 35
9 36
9 37
9 38
9 39
9 40
9 41
9 42
9 43
9 45
9 46
10 11
10 16
10 17
10 18
10 19
10 20
10 21
10 22
10 23
10 24
10 25
10 26
10 27
10 28
10 29
10 30
10 31
10 32
10 33
10 34
10 35
10 36
10 37
10 38
10 39
10 40
10 41
10 42
10 43
11 12
11 13
11 14
11 15
11 16
11 17
11 18
11 48
11 49
12 13
12 14
12 15
12 16
12 50
13 14
13 15
13 16
14 15
14 16
15 16
16 17
16 18
16 19
17 18
17 19
17 20
17 21
17 22
17 23
17 24
17 25
17 26
17 27
17 28
17 29
17 30
17 31
17 32
17 33
17 34
17 36
17 37
17 38
17 39
17 40
17 41
17 42
17 43
17 65
17 66
18 19
18 20
18 21
18 22
18 23
18 24
18 25
18 26
18 27
18 28
18 29
18 30
18 31
18 32
18 33
18 34
18 35
18 36
18 37
18 38
18 39
18 40
18 41
18 42
18 43
18 65
18 66
18 67
18 68
19 20
19 21
19 22
19 23
19 24
19 25
19 26
19 27
19 28
19 29
19 30
19 31
19 32
19 33
19 34
19 35
19 36
19 37
19 38
19 39
19 40
19 41
19 42
19 43
19 63
19 64
19 65
19 66
19 67
19 68
19 69
20 21
20 22
20 23
20 24
20 25
20 26
20 27
20 28
20 29
20 30
20 31
20 32
20 33
20 34
20 35
20 36
20 37
20 38
20 39
20 40
20 41
20 42
20 43
20 63
20 64
20 65
20 66
20 67
20 68
20 69
20 70
21 22
21 23
21 24
21 25
21 26
21 27
21 28
21 29
21 30
21 31
21 32
21 33
21 34
21 35
21 36
21 37
21 38
21 39
21 40
21 41
21 42
21 43
21 63
21 64
21 65
21 66
21 67
21 68
21 69
21 70
21 71
22 23
22 24
22 25
22 26
22 27
22 28
22 29
22 30
22 31
22 32
22 33
22 34
22 35
22 36
22 37
22 38
22 39
22 40
22 41
22 42
22 43
22 63
22 64
22 65
22 66
22 67
22 68
22 69
22 70
22 71
23 24
23 25
23 26
23 27
23 28
23 29
23 30
23 31
23 32
23 33
23 34
23 35
23 36
23 37
23 38
23 39
23 40
23 41
23 42
23 43
23 64
23 65
23 66
23 67
23 68
23 69
23 70
23 71
24 25
24 26
24 27
24 28
24 29
24 30
24 31
24 32
24 33
24 34
24 35
24 36
24 37
24 38
24 39
24 40
24 41
24 42
24 43
24 64
24 65
24 66
24 67
24 68
24 69
24 70
24 71
25 26
25 27
25 28
25 29
25 30
25 31
25 32
25 33
25 34
25 35
25 36
25 37
25 38
25 39
25 40
25 41
25 42
25 43
25 65
25 66
25 67
25 68
25 69
25 70
25 71
25 74
25 75
25 84
26 27
26 28
26 29
26 30
26 31
26 32
26 33
26 34
26 35
26 36
26 37
26 38
26 39
26 40
26 41
26 42
26 43
26 65
26 66
26 67
26 68
26 69
26 70
26 71
26 74
26 75
26 76
26 84
27 28
27 29
27 30
27 31
27 32
27 33
27 34
27 35
27 36
27 37
27 38
27 39
27 40
27 41
27 42
27 43
27 65
27 66
27 67
27 68
27 69
27 70
27 71
27 72
27 74
27 75
27 76
27 77
27 84
28 29
28 30
28 31
28 32
28 33
28 34
28 35
28 36
28 37
28 38
28 39
28 40
28 41
28 42
28 43
28 65
28 66
28 67
28 68
28 69
28 70
28 71
28 72
28 73
28 74
28 75
28 76
28 77
28 84
29 30
29 31
29 32
29 33
29 34
29 35
29 36
29 37
29 38
29 39
29 40
29 41
29 42
29 43
29 65
29 66
29 67
29 68
29 69
29 70
29 71
29 72
29 73
29 74
29 75
29 76
29 77
29 84
30 31
30 32
30 33
30 34
30 35
30 36
30 37
30 38
30 39
30 40
30 41
30 42
30 43
30 65
30 66
30 67
30 68
30 69
30 70
30 71
30 72
30 73
30 74
30 75
30 76
30 77
30 84
31 32
31 33
31 34
31 35
31 36
31 37
31 38
31 39
31 40
31 41
31 42
31 43
31 65
31 66
31 67
31 68
31 69
31 70
31 71
31 72
31 73
31 74
31 75
31 76
31 77
31 84
32 33
32 34
32 35
32 36
32 37
32 38
32 39
32 40
32 41
32 42
32 43
32 66
32 67
32 68
32 69
32 70
32 71
32 72
32 73
32 74
32 75
32 76
32 77
32 84
33 34
33 35
33 36
33 37
33 38
33 39
33 40
33 41
33 42
33 43
33 67
33 68
33 69
33 70
33 71
33 72
33 73
33 74
33 75
33 76
33 77
33 78
33 79
33 84
34 35
34 36
34 37
34 38
34 39
34 40
34 41
34 42
34 43
34 68
34 69
34 70
34 71
34 72
34 73
34 74
34 75
34 76
34 77
34 78
34 79
34 84
35 36
35 37
35 38
35 39
35 40
35 41
35 42
35 43
35 68
35 69
35 70
35 71
35 72
35 73
35 74
35 75
35 76
35 77
35 78
35 79
35 80
35 84
36 37
36 38
36 39
36 40
36 41
36 42
36 43
36 69
36 70
36 71
36 73
36 74
36 75
36 76
36 77
36 78
36 79
36 80
36 84
37 38
37 39
37 40
37 41
37 42
37 43
37 69
37 70
37 71
37 74
37 75
37 76
37 77
37 78
37 79
37 80
37 81
37 82
37 84
38 39
38 40
38 41
38 42
38 43
38 69
38 70
38 71
38 74
38 75
38 76
38 77
38 78
38 79
38 80
38 81
38 82
38 84
39 40
39 41
39 42
39 43
39 70
39 71
39 74
39 75
39 76
39 77
39 78
39 79
39 80
39 81
39 82
39 83
39 84
40 41
40 42
40 43
40 70
40 71
40 74
40 75
40 76
40 77
40 78
40 79
40 80
40 81
40 82
40 83
40 84
41 42
41 43
41 44
41 71
41 74
41 75
41 76
41 77
41 78
41 79
41 80
41 81
41 82
41 83
41 84
42 43
42 44
42 71
42 74
42 75
42 76
42 77
42 78
42 79
42 80
42 81
42 82
42 83
42 84
43 65
43 66
43 67
43 68
43 69
43 70
43 71
43 74
43 75
43 76
43 77
43 84
43 125
44 45
44 46
44 47
44 48
44 79
44 80
44 81
44 82
44 83
44 85
44 86
44 123
44 124
45 46
45 47
45 48
45 49
45 80
45 81
45 82
45 83
45 85
45 86
45 123
45 124
46 47
46 48
46 49
46 81
46 82
46 83
46 85
46 86
46 87
46 123
46 124
47 48
47 49
47 82
47 83
47 85
47 86
47 87
47 124
48 49
48 50
48 83
48 85
48 86
48 87
48 88
49 50
50 89
51 52
51 53
51 91
51 92
51 93
51 94
52 53
52 92
53 54
53 55
53 94
53 95
53 96
54 55
54 56
54 93
54 94
54 95
54 96
54 97
55 56
55 94
55 95
55 96
55 97
55 98
56 57
56 95
56 96
56 97
56 98
57 58
57 97
57 98
57 99
57 138
57 139
58 59
58 99
58 100
59 60
59 61
59 99
59 100
59 101
59 102
60 61
60 62
60 63
60 100
60 101
60 102
60 103
60 104
60 142
61 62
61 63
61 64
61 65
61 66
61 102
61 103
61 104
61 105
61 106
62 63
62 64
62 65
62 66
62 67
62 102
62 103
62 104
62 105
62 106
62 107
63 64
63 65
63 66
63 67
63 68
63 102
63 103
63 104
63 105
63 106
63 107
63 108
63 146
64 65
64 66
64 67
64 68
64 102
64 103
64 104
64 105
64 106
64 107
64 108
64 109
64 146
64 147
65 66
65 67
65 68
65 69
65 70
65 71
65 105
65 106
65 107
65 108
65 109
65 110
65 111
66 67
66 68
66 69
66 70
66 71
66 84
66 106
66 107
66 108
66 109
66 110
66 111
67 68
67 69
67 70
67 71
67 72
67 84
67 107
67 108
67 109
67 110
67 111
68 69
68 70
68 71
68 72
68 73
68 74
68 84
68 107
68 108
68 109
68 110
68 111
69 70
69 71
69 72
69 73
69 74
69 75
69 76
69 84
69 107
69 108
69 109
69 110
69 111
69 112
70 71
70 72
70 73
70 74
70 75
70 76
70 77
70 84
70 107
70 108
70 109
70 110
70 111
70 112
70 113
70 115
71 72
71 73
71 74
71 75
71 76
71 77
71 84
71 108
71 109
71 110
71 111
71 112
71 113
71 114
71 115
71 116
72 73
72 74
72 75
72 76
72 77
72 109
72 110
72 111
72 112
72 113
72 114
72 115
72 116
72 117
73 74
73 75
73 76
73 77
73 78
73 110
73 111
73 112
73 113
73 114
73 115
73 116
73 117
73 118
74 75
74 76
74 77
74 78
74 79
74 80
74 84
74 111
74 113
74 114
74 115
74 116
74 117
74 118
75 76
75 77
75 78
75 79
75 80
75 81
75 84
75 114
75 115
75 116
75 117
75 118
76 77
76 78
76 79
76 80
76 81
76 82
76 84
76 114
76 115
76 116
76 117
76 118
76 119
77 78
77 79
77 80
77 81
77 82
77 83
77 84
77 115
77 116
77 117
77 118
77 119
77 120
78 79
78 80
78 81
78 82
78 83
78 115
78 116
78 117
78 118
78 119
78 120
78 121
79 80
79 81
79 82
79 83
79 115
79 116
79 117
79 118
79 119
79 120
79 121
79 122
79 123
80 81
80 82
80 83
80 116
80 117
80 118
80 119
80 120
80 121
80 122
80 123
80 124
81 82
81 83
81 85
81 86
81 118
81 119
81 120
81 121
81 122
81 123
81 124
82 83
82 85
82 86
82 120
82 121
82 122
82 123
82 124
83 85
83 86
83 122
83 123
83 124
84 125
84 166
85 86
85 87
85 122
85 123
85 124
85 126
85 163
85 164
85 165
86 87
86 88
86 122
86 123
86 124
86 126
86 127
86 165
87 88
87 89
87 124
87 126
87 127
87 128
88 89
88 127
88 128
89 128
89 131
90 91
90 92
90 130
90 131
90 132
90 133
91 92
91 93
91 132
91 133
92 93
92 94
92 133
93 94
93 95
93 132
93 133
93 134
93 135
93 136
94 95
94 96
94 97
94 133
94 134
94 135
94 136
94 137
95 96
95 97
95 135
95 136
95 137
96 97
96 98
96 136
96 137
96 138
97 98
97 137
97 138
98 138
98 139
98 140
99 100
99 139
99 140
99 141
99 181
100 101
100 141
100 142
101 102
101 103
101 142
101 143
101 144
102 103
102 104
102 105
102 106
102 142
102 143
102 144
102 145
102 146
103 104
103 105
103 106
103 107
103 142
103 143
103 144
103 145
103 146
103 147
104 105
104 106
104 107
104 143
104 144
104 145
104 146
104 147
104 148
105 106
105 107
105 108
105 143
105 144
105 145
105 146
105 147
105 148
105 149
105 188
106 107
106 108
106 109
106 144
106 145
106 146
106 147
106 148
106 149
106 150
106 188
106 189
107 108
107 109
107 110
107 111
107 146
107 147
107 148
107 149
107 150
107 151
107 189
108 109
108 110
108 111
108 112
108 146
108 147
108 148
108 149
108 150
108 151
108 152
108 190
109 110
109 111
109 112
109 147
109 148
109 149
109 150
109 151
109 152
109 191
110 111
110 112
110 113
110 148
110 149
110 150
110 151
110 152
110 153
110 191
110 192
111 112
111 113
111 114
111 115
111 149
111 150
111 151
111 152
111 153
111 192
111 193
112 113
112 114
112 115
112 150
112 151
112 152
112 153
112 154
112 155
112 192
112 193
112 194
113 114
113 115
113 116
113 117
113 151
113 152
113 153
113 154
113 155
113 156
113 194
114 115
114 116
114 117
114 118
114 152
114 153
114 154
114 155
114 156
114 157
114 158
115 116
115 117
115 118
115 119
115 154
115 155
115 156
115 157
115 158
115 159
116 117
116 118
116 119
116 120
116 155
116 156
116 157
116 158
116 159
117 118
117 119
117 120
117 156
117 157
117 158
117 159
118 119
118 120
118 156
118 157
118 158
118 159
118 160
119 120
119 121
119 122
119 123
119 157
119 158
119 159
119 160
119 161
119 162
119 163
120 121
120 122
120 123
120 124
120 158
120 159
120 160
120 161
120 162
120 163
121 122
121 123
121 124
121 159
121 160
121 161
121 162
121 163
121 164
122 123
122 124
122 161
122 162
122 163
122 164
122 165
123 124
123 162
123 163
123 164
123 165
124 126
124 163
124 164
124 165
125 166
125 207
126 127
126 128
126 164
126 165
126 167
126 168
126 205
126 206
127 128
127 165
127 167
127 168
127 169
127 206
128 129
128 168
128 169
129 131
129 169
129 170
129 171
129 211
130 131
130 170
130 171
131 132
131 133
131 171
131 172
131 173
131 174
132 133
132 134
132 171
132 172
132 173
132 174
133 134
133 135
133 172
133 173
133 174
134 135
134 136
134 137
134 173
134 174
134 175
134 176
134 177
135 136
135 137
135 138
135 174
135 175
135 176
135 177
135 178
136 137
136 138
136 176
136 177
136 178
137 138
137 139
137 177
137 178
137 179
138 139
138 177
138 178
138 179
139 140
139 178
139 179
139 180
139 181
140 141
140 181
140 182
141 181
141 182
142 143
142 144
142 145
142 183
142 184
142 185
142 224
143 144
143 145
143 146
143 183
143 184
143 185
143 186
143 187
143 224
143 225
143 226
144 145
144 146
144 147
144 184
144 185
144 186
144 187
144 225
144 226
144 227
145 146
145 147
145 148
145 184
145 185
145 186
145 187
145 188
145 225
145 226
145 227
146 147
146 148
146 149
146 184
146 185
146 186
146 187
146 188
146 189
146 190
146 228
146 229
147 148
147 149
147 150
147 186
147 187
147 188
147 189
147 190
147 191
147 228
147 229
147 230
148 149
148 150
148 151
148 187
148 188
148 189
148 190
148 191
148 229
148 230
149 150
149 151
149 152
149 188
149 189
149 190
149 191
149 192
149 230
149 231
150 151
150 152
150 188
150 189
150 190
150 191
150 192
150 193
150 231
150 232
151 152
151 153
151 189
151 190
151 191
151 192
151 193
151 194
151 232
151 233
152 153
152 154
152 155
152 190
152 191
152 192
152 193
152 194
152 233
152 234
153 154
153 155
153 192
153 193
153 194
153 195
153 234
153 235
154 155
154 156
154 157
154 193
154 194
154 195
154 196
154 197
154 235
154 236
155 156
155 157
155 158
155 194
155 195
155 196
155 197
155 198
155 236
156 157
156 158
156 159
156 196
156 197
156 198
156 199
157 158
157 159
157 160
157 197
157 198
157 199
157 200
158 159
158 160
158 161
158 197
158 198
158 199
158 200
158 201
159 160
159 161
159 162
159 197
159 198
159 199
159 200
159 201
160 161
160 162
160 163
160 198
160 199
160 200
160 201
160 202
160 203
160 241
160 242
161 162
161 163
161 199
161 200
161 201
161 202
161 203
161 204
161 242
162 163
162 164
162 200
162 201
162 202
162 203
162 204
163 164
163 165
163 203
163 204
164 165
164 167
164 203
164 204
164 205
164 206
164 246
165 167
165 204
165 205
165 206
166 207
166 248
167 168
167 205
167 206
167 208
167 209
167 247
168 169
168 206
168 208
168 209
168 210
168 251
169 209
169 210
169 211
169 251
170 171
170 211
171 172
171 211
172 173
172 174
172 212
173 174
173 175
173 176
173 212
173 213
173 214
174 175
174 176
174 177
174 214
175 176
175 177
175 178
175 214
175 215
175 216
175 217
175 218
175 219
176 177
176 178
176 179
176 216
176 217
176 218
176 219
177 178
177 179
177 180
177 217
177 218
177 219
177 220
178 179
178 180
178 217
178 218
178 219
178 220
179 180
179 181
179 218
179 219
179 220
179 221
180 181
180 219
180 220
180 221
180 222
181 182
181 222
182 183
183 184
183 185
183 224
183 225
184 185
184 186
184 187
184 224
184 225
184 226
184 227
185 186
185 187
185 188
185 224
185 225
185 226
185 227
185 228
185 267
186 187
186 188
186 224
186 225
186 226
186 227
186 228
186 229
186 267
187 188
187 189
187 225
187 226
187 227
187 228
187 229
187 230
187 267
188 189
188 190
188 191
188 227
188 228
188 229
188 230
188 231
189 190
189 191
189 192
189 228
189 229
189 230
189 231
189 232
190 191
190 192
190 193
190 228
190 229
190 230
190 231
190 232
190 233
191 192
191 193
191 229
191 230
191 231
191 232
191 233
191 234
191 272
192 193
192 194
192 230
192 231
192 232
192 233
192 234
192 235
192 273
192 274
193 194
193 231
193 232
193 233
193 234
193 235
193 236
193 274
193 275
194 195
194 196
194 233
194 234
194 235
194 236
194 276
195 196
195 197
195 235
195 236
195 237
195 277
196 197
196 198
196 235
196 236
196 237
196 238
196 277
196 278
197 198
197 199
197 200
197 236
197 237
197 238
197 239
197 240
197 278
198 199
198 200
198 201
198 237
198 238
198 239
198 240
198 241
198 242
198 280
199 200
199 201
199 202
199 238
199 239
199 240
199 241
199 242
199 280
199 281
200 201
200 202
200 203
200 239
200 240
200 241
200 242
200 243
200 281
200 282
200 283
201 202
201 203
201 239
201 240
201 241
201 242
201 243
201 244
201 282
201 283
201 284
202 203
202 204
202 240
202 241
202 242
202 243
202 244
202 245
202 283
202 284
202 285
203 204
203 205
203 242
203 243
203 244
203 245
203 246
203 285
203 286
204 205
204 206
204 243
204 244
204 245
204 246
204 247
204 286
204 287
205 206
205 208
205 245
205 246
205 247
206 208
206 209
206 246
206 247
207 248
207 289
208 209
208 246
208 247
208 249
208 250
208 251
208 288
209 210
209 247
209 250
209 251
209 252
210 211
210 251
210 252
211 212
212 213
212 214
212 252
212 253
213 214
213 215
213 216
213 217
213 252
213 253
213 254
213 255
213 256
214 215
214 216
214 217
214 218
214 253
214 254
214 255
214 256
215 216
215 217
215 218
215 219
215 253
215 254
215 255
215 256
215 257
215 258
215 259
215 260
216 217
216 218
216 219
216 220
216 254
216 255
216 256
216 257
216 258
216 259
216 260
217 218
217 219
217 220
217 221
217 255
217 256
217 257
217 258
217 259
217 260
217 261
218 219
218 220
218 221
218 256
218 257
218 258
218 259
218 260
218 261
219 220
219 221
219 256
219 258
219 259
219 260
219 261
220 221
220 222
220 259
220 260
220 261
220 262
220 263
221 222
221 223
221 259
221 260
221 261
221 262
221 263
221 264
222 223
222 263
223 224
223 263
223 264
223 265
224 225
224 226
224 227
224 265
224 266
224 267
225 226
225 227
225 228
225 265
225 266
225 267
225 268
226 227
226 228
226 229
226 265
226 266
226 267
226 268
227 228
227 229
227 265
227 266
227 267
227 268
228 229
228 230
228 231
228 265
228 266
228 267
228 268
228 269
228 270
228 271
229 230
229 231
229 232
229 266
229 267
229 268
229 269
229 270
229 271
229 272
230 231
230 232
230 233
230 268
230 269
230 270
230 271
230 272
230 273
231 232
231 233
231 234
231 269
231 270
231 271
231 272
231 273
231 274
231 275
232 233
232 234
232 269
232 270
232 271
232 272
232 273
232 274
232 275
233 234
233 235
233 271
233 272
233 273
233 274
233 275
233 276
234 235
234 236
234 272
234 273
234 274
234 275
234 276
234 277
234 316
235 236
235 237
235 274
235 275
235 276
235 277
235 278
236 237
236 275
236 276
236 277
236 278
237 238
237 239
237 277
237 278
237 279
238 239
238 240
238 241
238 278
238 279
238 280
238 281
238 320
239 240
239 241
239 242
239 278
239 279
239 280
239 281
239 282
239 283
239 320
239 321
240 241
240 242
240 243
240 279
240 280
240 281
240 282
240 283
240 284
240 321
240 322
240 323
241 242
241 243
241 244
241 280
241 281
241 282
241 283
241 284
241 285
241 322
241 323
242 243
242 244
242 280
242 281
242 282
242 283
242 284
242 285
242 286
242 323
243 244
243 245
243 281
243 282
243 283
243 284
243 285
243 286
244 245
244 246
244 282
244 283
244 284
244 285
244 286
244 287
245 246
245 247
245 284
245 285
245 286
245 287
245 288
246 247
246 249
246 285
246 286
246 287
246 288
247 249
247 250
247 287
247 288
248 289
248 297
248 298
248 299
248 300
248 301
248 302
248 303
248 305
248 306
248 310
248 311
248 312
248 313
248 314
248 315
248 330
249 250
249 251
249 286
249 287
249 288
249 290
249 291
249 292
249 329
250 251
250 252
250 288
250 290
250 291
250 292
251 252
252 253
253 254
253 255
253 256
253 293
254 255
254 256
254 257
254 258
254 259
254 293
254 294
254 295
254 296
255 256
255 257
255 258
255 259
255 260
255 294
255 295
255 296
256 257
256 258
256 259
256 260
256 295
256 296
257 258
257 259
257 260
257 261
257 262
257 294
257 295
257 296
257 297
257 298
257 299
257 300
257 301
257 302
257 303
258 259
258 260
258 261
258 262
258 295
258 296
258 297
258 298
258 299
258 300
258 301
258 302
258 303
258 304
259 260
259 261
259 262
259 263
259 295
259 296
259 297
259 298
259 299
259 300
259 301
259 302
259 303
259 304
260 261
260 262
260 263
260 264
260 296
260 297
260 298
260 299
260 300
260 301
260 302
260 303
260 304
260 305
261 262
261 263
261 264
261 297
261 298
261 299
261 300
261 301
261 302
261 303
261 304
261 305
261 306
262 263
262 264
262 297
262 298
262 299
262 300
262 301
262 302
262 303
262 304
262 305
262 306
263 264
263 265
263 304
263 305
264 265
264 266
264 268
264 304
264 305
264 306
264 307
264 308
264 309
265 266
265 267
265 268
265 269
265 307
265 308
265 309
266 267
266 268
266 269
266 270
266 307
266 308
266 309
267 268
268 269
268 270
268 271
268 307
268 308
268 309
269 270
269 271
269 272
269 273
269 305
269 306
269 307
269 308
269 309
269 310
269 311
269 312
269 313
269 314
270 271
270 272
270 273
270 274
270 306
270 307
270 308
270 309
270 310
270 311
270 312
270 313
270 314
270 315
271 272
271 273
271 274
271 275
271 306
271 307
271 308
271 309
271 310
271 311
271 312
271 313
271 314
271 315
272 273
272 274
272 275
272 308
272 309
272 310
272 311
272 312
272 313
272 314
272 315
272 316
273 274
273 275
273 276
273 310
273 311
273 312
273 313
273 314
273 315
273 316
273 317
274 275
274 276
274 311
274 312
274 313
274 314
274 315
274 316
274 317
274 318
275 276
275 277
275 312
275 313
275 314
275 315
275 316
275 317
275 318
276 277
276 278
276 315
276 316
276 317
276 318
276 319
277 278
277 317
277 318
277 319
278 279
278 280
278 318
278 319
278 320
278 321
279 280
279 281
279 282
279 320
279 321
280 281
280 282
280 283
280 284
280 320
280 321
280 322
280 323
281 282
281 283
281 284
281 285
281 320
281 321
281 322
281 323
282 283
282 284
282 285
282 320
282 321
282 322
282 323
282 326
283 284
283 285
283 286
283 321
283 322
283 323
283 326
283 327
284 285
284 286
284 287
284 322
284 323
284 326
284 327
284 328
285 286
285 287
285 288
285 323
285 326
285 327
285 328
285 329
286 287
286 288
286 290
286 326
286 327
286 328
286 329
287 288
287 290
287 291
287 326
287 327
287 328
287 329
288 290
288 291
288 292
288 327
288 328
288 329
289 294
289 295
289 297
289 298
289 299
289 300
289 301
289 302
289 303
289 304
289 305
289 306
289 310
289 311
289 312
289 313
289 314
289 315
289 330
290 291
290 292
290 293
290 325
290 326
290 327
290 328
290 329
291 292
291 293
291 294
291 327
291 328
291 329
292 293
292 294
292 295
292 328
292 329
293 294
293 295
293 296
293 297
293 329
294 295
294 296
294 297
294 298
294 299
294 300
294 301
294 302
294 303
294 330
295 296
295 297
295 298
295 299
295 300
295 301
295 302
295 303
296 297
296 298
296 299
296 300
296 301
296 302
296 303
297 298
297 299
297 300
297 301
297 302
297 303
297 304
297 305
297 306
297 330
298 299
298 300
298 301
298 302
298 303
298 304
298 305
298 306
298 330
299 300
299 301
299 302
299 303
299 304
299 305
299 306
299 310
299 330
300 301
300 302
300 303
300 304
300 305
300 306
300 310
300 311
300 330
301 302
301 303
301 304
301 305
301 306
301 310
301 311
301 312
301 330
302 303
302 304
302 305
302 306
302 310
302 311
302 312
302 313
302 314
302 330
303 304
303 305
303 306
303 307
303 308
303 309
303 310
303 311
303 312
303 313
303 314
303 315
303 330
304 305
304 306
304 307
304 308
304 309
304 310
304 311
304 312
304 330
305 306
305 307
305 308
305 309
305 310
305 311
305 312
305 313
305 330
306 307
306 308
306 309
306 310
306 311
306 312
306 313
306 314
306 330
307 308
307 309
307 310
307 311
307 312
307 313
308 309
308 310
308 311
308 312
308 313
309 310
309 311
309 312
309 313
309 314
310 311
310 312
310 313
310 314
310 315
310 330
311 312
311 313
311 314
311 315
311 316
311 330
312 313
312 314
312 315
312 316
312 317
312 330
313 314
313 315
313 316
313 317
313 318
313 330
314 315
314 316
314 317
314 318
314 330
315 316
315 317
315 318
315 330
316 317
316 318
316 319
317 318
317 319
318 319
319 320
319 321
319 322
320 321
320 322
320 323
321 322
321 323
321 324
321 325
321 326
322 323
322 324
322 325
322 326
322 327
323 324
323 325
323 326
323 327
323 328
324 325
324 326
324 327
324 328
324 329
325 326
325 327
325 328
325 329
326 327
326 328
326 329
327 328
327 329
328 329
